NAME : in_house_7_10
TYPE : TSP
DIMENSION : 7
EDGE_WEIGHT_TYPE : EXPLICIT
EDGE_WEIGHT_FORMAT : UPPER_ROW
COMMENT : INVERSION_SHIFT=7
EDGE_WEIGHT_SECTION
31
17
18
46
5
37
2
20
41
40
44
26
33
9
18
15
36
34
35
7
24
